logique/TP1 Logique/zebra-PICHENOT-REY.cnf
c translation table for variable names: 
c     E_1_musicien -> 1
c     E_1_tortue -> 2
c     E_2_musicien -> 3
c     E_2_tortue -> 4
c     E_3_musicien -> 5
c     E_3_tortue -> 6
c     E_4_musicien -> 7
c     E_4_tortue -> 8
c     E_5_musicien -> 9
c     E_5_tortue -> 10
c     E_1_jaune -> 11
c     E_1_jazz -> 12
c     E_2_jaune -> 13
c     E_2_jazz -> 14
c     E_3_jaune -> 15
c     E_3_jazz -> 16
c     E_4_jaune -> 17
c     E_4_jazz -> 18
c     E_5_jaune -> 19
c     E_5_jazz -> 20
c     E_1_hardrock -> 21
c     E_1_chat -> 22
c     E_2_hardrock -> 23
c     E_2_chat -> 24
c     E_3_hardrock -> 25
c     E_3_chat -> 26
c     E_4_hardrock -> 27
c     E_4_chat -> 28
c     E_5_hardrock -> 29
c     E_5_chat -> 30
c     E_1_bois -> 31
c     E_2_blanche -> 32
c     E_2_bois -> 33
c     E_3_blanche -> 34
c     E_3_bois -> 35
c     E_4_blanche -> 36
c     E_4_bois -> 37
c     E_5_blanche -> 38
c     E_1_chercheur -> 39
c     E_1_brique -> 40
c     E_2_chercheur -> 41
c     E_2_brique -> 42
c     E_3_chercheur -> 43
c     E_3_brique -> 44
c     E_4_chercheur -> 45
c     E_4_brique -> 46
c     E_5_chercheur -> 47
c     E_5_brique -> 48
c     E_1_footballeur -> 49
c     E_2_immeuble -> 50
c     E_2_footballeur -> 51
c     E_1_immeuble -> 52
c     E_3_immeuble -> 53
c     E_3_footballeur -> 54
c     E_4_immeuble -> 55
c     E_4_footballeur -> 56
c     E_5_immeuble -> 57
c     E_5_footballeur -> 58
c     E_1_classique -> 59
c     E_2_biere -> 60
c     E_2_classique -> 61
c     E_1_biere -> 62
c     E_3_biere -> 63
c     E_3_classique -> 64
c     E_4_biere -> 65
c     E_4_classique -> 66
c     E_5_biere -> 67
c     E_5_classique -> 68
c     E_1_hiphop -> 69
c     E_1_the -> 70
c     E_2_hiphop -> 71
c     E_2_the -> 72
c     E_3_hiphop -> 73
c     E_3_the -> 74
c     E_4_hiphop -> 75
c     E_4_the -> 76
c     E_5_hiphop -> 77
c     E_5_the -> 78
c     E_3_soda -> 79
c     E_2_poisson -> 80
c     E_1_poisson -> 81
c     E_3_poisson -> 82
c     E_4_poisson -> 83
c     E_5_poisson -> 84
c     E_1_boulanger -> 85
c     E_1_chanson -> 86
c     E_2_boulanger -> 87
c     E_2_chanson -> 88
c     E_3_boulanger -> 89
c     E_3_chanson -> 90
c     E_4_boulanger -> 91
c     E_4_chanson -> 92
c     E_5_boulanger -> 93
c     E_5_chanson -> 94
c     E_1_hamster -> 95
c     E_2_hamster -> 96
c     E_3_hamster -> 97
c     E_4_hamster -> 98
c     E_5_hamster -> 99
c     E_1_architecte -> 100
c     E_1_eau -> 101
c     E_2_architecte -> 102
c     E_2_eau -> 103
c     E_3_architecte -> 104
c     E_3_eau -> 105
c     E_4_architecte -> 106
c     E_4_eau -> 107
c     E_5_architecte -> 108
c     E_5_eau -> 109
c     E_1_whisky -> 110
c     E_2_whisky -> 111
c     E_3_whisky -> 112
c     E_4_whisky -> 113
c     E_5_bois -> 114
c     E_5_whisky -> 115
c     E_1_blanche -> 116
c     E_1_zebre -> 117
c     E_2_zebre -> 118
c     E_3_zebre -> 119
c     E_4_zebre -> 120
c     E_5_zebre -> 121
c     E_1_soda -> 122
c     E_2_soda -> 123
c     E_4_soda -> 124
c     E_5_soda -> 125
p cnf 125 591
-1 2 0
-3 4 0
-5 6 0
-7 8 0
-9 10 0
-11 12 0
-13 14 0
-15 16 0
-17 18 0
-19 20 0
-21 22 0
-23 24 0
-25 26 0
-27 28 0
-29 30 0
-31 32 0
-33 34 0
-35 36 0
-37 38 0
-39 40 0
-41 42 0
-43 44 0
-45 46 0
-47 48 0
-49 50 0
-51 52 53 0
-54 50 55 0
-56 53 57 0
-58 55 0
-59 60 0
-61 62 63 0
-64 60 65 0
-66 63 67 0
-68 65 0
-69 70 0
-71 72 0
-73 74 0
-75 76 0
-77 78 0
79 0
49 0
-59 80 0
-61 81 82 0
-64 80 83 0
-66 82 84 0
-68 83 0
-85 86 0
-87 88 0
-89 90 0
-91 92 0
-93 94 0
-95 14 0
-96 12 16 0
-97 14 18 0
-98 16 20 0
-99 18 0
-100 101 0
-102 103 0
-104 105 0
-106 107 0
-108 109 0
-31 110 0
-33 111 0
-35 112 0
-37 113 0
-114 115 0
116 32 34 36 38 0
31 33 35 37 114 0
40 42 44 46 48 0
52 50 53 55 57 0
11 13 15 17 19 0
22 24 26 28 30 0
95 96 97 98 99 0
81 80 82 83 84 0
2 4 6 8 10 0
117 118 119 120 121 0
100 102 104 106 108 0
85 87 89 91 93 0
39 41 43 45 47 0
49 51 54 56 58 0
1 3 5 7 9 0
62 60 63 65 67 0
101 103 105 107 109 0
122 123 79 124 125 0
70 72 74 76 78 0
110 111 112 113 115 0
86 88 90 92 94 0
59 61 64 66 68 0
21 23 25 27 29 0
69 71 73 75 77 0
12 14 16 18 20 0
-116 -32 0
-116 -34 0
-116 -36 0
-116 -38 0
-32 -34 0
-32 -36 0
-32 -38 0
-34 -36 0
-34 -38 0
-36 -38 0
-31 -33 0
-31 -35 0
-31 -37 0
-31 -114 0
-33 -35 0
-33 -37 0
-33 -114 0
-35 -37 0
-35 -114 0
-37 -114 0
-40 -42 0
-40 -44 0
-40 -46 0
-40 -48 0
-42 -44 0
-42 -46 0
-42 -48 0
-44 -46 0
-44 -48 0
-46 -48 0
-52 -50 0
-52 -53 0
-52 -55 0
-52 -57 0
-50 -53 0
-50 -55 0
-50 -57 0
-53 -55 0
-53 -57 0
-55 -57 0
-11 -13 0
-11 -15 0
-11 -17 0
-11 -19 0
-13 -15 0
-13 -17 0
-13 -19 0
-15 -17 0
-15 -19 0
-17 -19 0
-22 -24 0
-22 -26 0
-22 -28 0
-22 -30 0
-24 -26 0
-24 -28 0
-24 -30 0
-26 -28 0
-26 -30 0
-28 -30 0
-95 -96 0
-95 -97 0
-95 -98 0
-95 -99 0
-96 -97 0
-96 -98 0
-96 -99 0
-97 -98 0
-97 -99 0
-98 -99 0
-81 -80 0
-81 -82 0
-81 -83 0
-81 -84 0
-80 -82 0
-80 -83 0
-80 -84 0
-82 -83 0
-82 -84 0
-83 -84 0
-2 -4 0
-2 -6 0
-2 -8 0
-2 -10 0
-4 -6 0
-4 -8 0
-4 -10 0
-6 -8 0
-6 -10 0
-8 -10 0
-117 -118 0
-117 -119 0
-117 -120 0
-117 -121 0
-118 -119 0
-118 -120 0
-118 -121 0
-119 -120 0
-119 -121 0
-120 -121 0
-100 -102 0
-100 -104 0
-100 -106 0
-100 -108 0
-102 -104 0
-102 -106 0
-102 -108 0
-104 -106 0
-104 -108 0
-106 -108 0
-85 -87 0
-85 -89 0
-85 -91 0
-85 -93 0
-87 -89 0
-87 -91 0
-87 -93 0
-89 -91 0
-89 -93 0
-91 -93 0
-39 -41 0
-39 -43 0
-39 -45 0
-39 -47 0
-41 -43 0
-41 -45 0
-41 -47 0
-43 -45 0
-43 -47 0
-45 -47 0
-49 -51 0
-49 -54 0
-49 -56 0
-49 -58 0
-51 -54 0
-51 -56 0
-51 -58 0
-54 -56 0
-54 -58 0
-56 -58 0
-1 -3 0
-1 -5 0
-1 -7 0
-1 -9 0
-3 -5 0
-3 -7 0
-3 -9 0
-5 -7 0
-5 -9 0
-7 -9 0
-62 -60 0
-62 -63 0
-62 -65 0
-62 -67 0
-60 -63 0
-60 -65 0
-60 -67 0
-63 -65 0
-63 -67 0
-65 -67 0
-101 -103 0
-101 -105 0
-101 -107 0
-101 -109 0
-103 -105 0
-103 -107 0
-103 -109 0
-105 -107 0
-105 -109 0
-107 -109 0
-122 -123 0
-122 -79 0
-122 -124 0
-122 -125 0
-123 -79 0
-123 -124 0
-123 -125 0
-79 -124 0
-79 -125 0
-124 -125 0
-70 -72 0
-70 -74 0
-70 -76 0
-70 -78 0
-72 -74 0
-72 -76 0
-72 -78 0
-74 -76 0
-74 -78 0
-76 -78 0
-110 -111 0
-110 -112 0
-110 -113 0
-110 -115 0
-111 -112 0
-111 -113 0
-111 -115 0
-112 -113 0
-112 -115 0
-113 -115 0
-86 -88 0
-86 -90 0
-86 -92 0
-86 -94 0
-88 -90 0
-88 -92 0
-88 -94 0
-90 -92 0
-90 -94 0
-92 -94 0
-59 -61 0
-59 -64 0
-59 -66 0
-59 -68 0
-61 -64 0
-61 -66 0
-61 -68 0
-64 -66 0
-64 -68 0
-66 -68 0
-21 -23 0
-21 -25 0
-21 -27 0
-21 -29 0
-23 -25 0
-23 -27 0
-23 -29 0
-25 -27 0
-25 -29 0
-27 -29 0
-69 -71 0
-69 -73 0
-69 -75 0
-69 -77 0
-71 -73 0
-71 -75 0
-71 -77 0
-73 -75 0
-73 -77 0
-75 -77 0
-12 -14 0
-12 -16 0
-12 -18 0
-12 -20 0
-14 -16 0
-14 -18 0
-14 -20 0
-16 -18 0
-16 -20 0
-18 -20 0
-31 -116 0
-40 -116 0
-40 -31 0
-52 -116 0
-52 -31 0
-52 -40 0
-11 -116 0
-11 -31 0
-11 -40 0
-11 -52 0
-95 -22 0
-81 -22 0
-81 -95 0
-2 -22 0
-2 -95 0
-2 -81 0
-117 -22 0
-117 -95 0
-117 -81 0
-117 -2 0
-85 -100 0
-39 -100 0
-39 -85 0
-49 -100 0
-49 -85 0
-49 -39 0
-1 -100 0
-1 -85 0
-1 -39 0
-1 -49 0
-101 -62 0
-122 -62 0
-122 -101 0
-70 -62 0
-70 -101 0
-70 -122 0
-110 -62 0
-110 -101 0
-110 -122 0
-110 -70 0
-59 -86 0
-21 -86 0
-21 -59 0
-69 -86 0
-69 -59 0
-69 -21 0
-12 -86 0
-12 -59 0
-12 -21 0
-12 -69 0
-33 -32 0
-42 -32 0
-42 -33 0
-50 -32 0
-50 -33 0
-50 -42 0
-13 -32 0
-13 -33 0
-13 -42 0
-13 -50 0
-96 -24 0
-80 -24 0
-80 -96 0
-4 -24 0
-4 -96 0
-4 -80 0
-118 -24 0
-118 -96 0
-118 -80 0
-118 -4 0
-87 -102 0
-41 -102 0
-41 -87 0
-51 -102 0
-51 -87 0
-51 -41 0
-3 -102 0
-3 -87 0
-3 -41 0
-3 -51 0
-103 -60 0
-123 -60 0
-123 -103 0
-72 -60 0
-72 -103 0
-72 -123 0
-111 -60 0
-111 -103 0
-111 -123 0
-111 -72 0
-61 -88 0
-23 -88 0
-23 -61 0
-71 -88 0
-71 -61 0
-71 -23 0
-14 -88 0
-14 -61 0
-14 -23 0
-14 -71 0
-35 -34 0
-44 -34 0
-44 -35 0
-53 -34 0
-53 -35 0
-53 -44 0
-15 -34 0
-15 -35 0
-15 -44 0
-15 -53 0
-97 -26 0
-82 -26 0
-82 -97 0
-6 -26 0
-6 -97 0
-6 -82 0
-119 -26 0
-119 -97 0
-119 -82 0
-119 -6 0
-89 -104 0
-43 -104 0
-43 -89 0
-54 -104 0
-54 -89 0
-54 -43 0
-5 -104 0
-5 -89 0
-5 -43 0
-5 -54 0
-105 -63 0
-79 -63 0
-79 -105 0
-74 -63 0
-74 -105 0
-74 -79 0
-112 -63 0
-112 -105 0
-112 -79 0
-112 -74 0
-64 -90 0
-25 -90 0
-25 -64 0
-73 -90 0
-73 -64 0
-73 -25 0
-16 -90 0
-16 -64 0
-16 -25 0
-16 -73 0
-37 -36 0
-46 -36 0
-46 -37 0
-55 -36 0
-55 -37 0
-55 -46 0
-17 -36 0
-17 -37 0
-17 -46 0
-17 -55 0
-98 -28 0
-83 -28 0
-83 -98 0
-8 -28 0
-8 -98 0
-8 -83 0
-120 -28 0
-120 -98 0
-120 -83 0
-120 -8 0
-91 -106 0
-45 -106 0
-45 -91 0
-56 -106 0
-56 -91 0
-56 -45 0
-7 -106 0
-7 -91 0
-7 -45 0
-7 -56 0
-107 -65 0
-124 -65 0
-124 -107 0
-76 -65 0
-76 -107 0
-76 -124 0
-113 -65 0
-113 -107 0
-113 -124 0
-113 -76 0
-66 -92 0
-27 -92 0
-27 -66 0
-75 -92 0
-75 -66 0
-75 -27 0
-18 -92 0
-18 -66 0
-18 -27 0
-18 -75 0
-114 -38 0
-48 -38 0
-48 -114 0
-57 -38 0
-57 -114 0
-57 -48 0
-19 -38 0
-19 -114 0
-19 -48 0
-19 -57 0
-99 -30 0
-84 -30 0
-84 -99 0
-10 -30 0
-10 -99 0
-10 -84 0
-121 -30 0
-121 -99 0
-121 -84 0
-121 -10 0
-93 -108 0
-47 -108 0
-47 -93 0
-58 -108 0
-58 -93 0
-58 -47 0
-9 -108 0
-9 -93 0
-9 -47 0
-9 -58 0
-109 -67 0
-125 -67 0
-125 -109 0
-78 -67 0
-78 -109 0
-78 -125 0
-115 -67 0
-115 -109 0
-115 -125 0
-115 -78 0
-68 -94 0
-29 -94 0
-29 -68 0
-77 -94 0
-77 -68 0
-77 -29 0
-20 -94 0
-20 -68 0
-20 -29 0
-20 -77 0
