logique/TP1 Logique/zebra-PICHENOT-REY.sat
-E_1_musicien E_1_tortue
-E_2_musicien E_2_tortue
-E_3_musicien E_3_tortue
-E_4_musicien E_4_tortue
-E_5_musicien E_5_tortue
-E_1_jaune E_1_jazz
-E_2_jaune E_2_jazz
-E_3_jaune E_3_jazz
-E_4_jaune E_4_jazz
-E_5_jaune E_5_jazz
-E_1_hardrock E_1_chat
-E_2_hardrock E_2_chat
-E_3_hardrock E_3_chat
-E_4_hardrock E_4_chat
-E_5_hardrock E_5_chat
-E_1_bois E_2_blanche
-E_2_bois E_3_blanche
-E_3_bois E_4_blanche
-E_4_bois E_5_blanche
-E_1_chercheur E_1_brique
-E_2_chercheur E_2_brique
-E_3_chercheur E_3_brique
-E_4_chercheur E_4_brique
-E_5_chercheur E_5_brique
-E_1_footballeur E_2_immeuble
-E_2_footballeur E_1_immeuble E_3_immeuble
-E_3_footballeur E_2_immeuble E_4_immeuble
-E_4_footballeur E_3_immeuble E_5_immeuble
-E_5_footballeur E_4_immeuble
-E_1_classique E_2_biere
-E_2_classique E_1_biere E_3_biere
-E_3_classique E_2_biere E_4_biere
-E_4_classique E_3_biere E_5_biere
-E_5_classique E_4_biere
-E_1_hiphop E_1_the
-E_2_hiphop E_2_the
-E_3_hiphop E_3_the
-E_4_hiphop E_4_the
-E_5_hiphop E_5_the
E_3_soda
E_1_footballeur
-E_1_classique E_2_poisson
-E_2_classique E_1_poisson E_3_poisson
-E_3_classique E_2_poisson E_4_poisson
-E_4_classique E_3_poisson E_5_poisson
-E_5_classique E_4_poisson
-E_1_boulanger E_1_chanson
-E_2_boulanger E_2_chanson
-E_3_boulanger E_3_chanson
-E_4_boulanger E_4_chanson
-E_5_boulanger E_5_chanson
-E_1_hamster E_2_jazz
-E_2_hamster E_1_jazz E_3_jazz
-E_3_hamster E_2_jazz E_4_jazz
-E_4_hamster E_3_jazz E_5_jazz
-E_5_hamster E_4_jazz
-E_1_architecte E_1_eau
-E_2_architecte E_2_eau
-E_3_architecte E_3_eau
-E_4_architecte E_4_eau
-E_5_architecte E_5_eau
-E_1_bois E_1_whisky
-E_2_bois E_2_whisky
-E_3_bois E_3_whisky
-E_4_bois E_4_whisky
-E_5_bois E_5_whisky
# TODO
E_1_blanche E_2_blanche E_3_blanche E_4_blanche E_5_blanche 
E_1_bois E_2_bois E_3_bois E_4_bois E_5_bois 
E_1_brique E_2_brique E_3_brique E_4_brique E_5_brique 
E_1_immeuble E_2_immeuble E_3_immeuble E_4_immeuble E_5_immeuble 
E_1_jaune E_2_jaune E_3_jaune E_4_jaune E_5_jaune 
E_1_chat E_2_chat E_3_chat E_4_chat E_5_chat 
E_1_hamster E_2_hamster E_3_hamster E_4_hamster E_5_hamster 
E_1_poisson E_2_poisson E_3_poisson E_4_poisson E_5_poisson 
E_1_tortue E_2_tortue E_3_tortue E_4_tortue E_5_tortue 
E_1_zebre E_2_zebre E_3_zebre E_4_zebre E_5_zebre 
E_1_architecte E_2_architecte E_3_architecte E_4_architecte E_5_architecte 
E_1_boulanger E_2_boulanger E_3_boulanger E_4_boulanger E_5_boulanger 
E_1_chercheur E_2_chercheur E_3_chercheur E_4_chercheur E_5_chercheur 
E_1_footballeur E_2_footballeur E_3_footballeur E_4_footballeur E_5_footballeur 
E_1_musicien E_2_musicien E_3_musicien E_4_musicien E_5_musicien 
E_1_biere E_2_biere E_3_biere E_4_biere E_5_biere 
E_1_eau E_2_eau E_3_eau E_4_eau E_5_eau 
E_1_soda E_2_soda E_3_soda E_4_soda E_5_soda 
E_1_the E_2_the E_3_the E_4_the E_5_the 
E_1_whisky E_2_whisky E_3_whisky E_4_whisky E_5_whisky 
E_1_chanson E_2_chanson E_3_chanson E_4_chanson E_5_chanson 
E_1_classique E_2_classique E_3_classique E_4_classique E_5_classique 
E_1_hardrock E_2_hardrock E_3_hardrock E_4_hardrock E_5_hardrock 
E_1_hiphop E_2_hiphop E_3_hiphop E_4_hiphop E_5_hiphop 
E_1_jazz E_2_jazz E_3_jazz E_4_jazz E_5_jazz 
-E_1_blanche -E_2_blanche
-E_1_blanche -E_3_blanche
-E_1_blanche -E_4_blanche
-E_1_blanche -E_5_blanche
-E_2_blanche -E_3_blanche
-E_2_blanche -E_4_blanche
-E_2_blanche -E_5_blanche
-E_3_blanche -E_4_blanche
-E_3_blanche -E_5_blanche
-E_4_blanche -E_5_blanche
-E_1_bois -E_2_bois
-E_1_bois -E_3_bois
-E_1_bois -E_4_bois
-E_1_bois -E_5_bois
-E_2_bois -E_3_bois
-E_2_bois -E_4_bois
-E_2_bois -E_5_bois
-E_3_bois -E_4_bois
-E_3_bois -E_5_bois
-E_4_bois -E_5_bois
-E_1_brique -E_2_brique
-E_1_brique -E_3_brique
-E_1_brique -E_4_brique
-E_1_brique -E_5_brique
-E_2_brique -E_3_brique
-E_2_brique -E_4_brique
-E_2_brique -E_5_brique
-E_3_brique -E_4_brique
-E_3_brique -E_5_brique
-E_4_brique -E_5_brique
-E_1_immeuble -E_2_immeuble
-E_1_immeuble -E_3_immeuble
-E_1_immeuble -E_4_immeuble
-E_1_immeuble -E_5_immeuble
-E_2_immeuble -E_3_immeuble
-E_2_immeuble -E_4_immeuble
-E_2_immeuble -E_5_immeuble
-E_3_immeuble -E_4_immeuble
-E_3_immeuble -E_5_immeuble
-E_4_immeuble -E_5_immeuble
-E_1_jaune -E_2_jaune
-E_1_jaune -E_3_jaune
-E_1_jaune -E_4_jaune
-E_1_jaune -E_5_jaune
-E_2_jaune -E_3_jaune
-E_2_jaune -E_4_jaune
-E_2_jaune -E_5_jaune
-E_3_jaune -E_4_jaune
-E_3_jaune -E_5_jaune
-E_4_jaune -E_5_jaune
-E_1_chat -E_2_chat
-E_1_chat -E_3_chat
-E_1_chat -E_4_chat
-E_1_chat -E_5_chat
-E_2_chat -E_3_chat
-E_2_chat -E_4_chat
-E_2_chat -E_5_chat
-E_3_chat -E_4_chat
-E_3_chat -E_5_chat
-E_4_chat -E_5_chat
-E_1_hamster -E_2_hamster
-E_1_hamster -E_3_hamster
-E_1_hamster -E_4_hamster
-E_1_hamster -E_5_hamster
-E_2_hamster -E_3_hamster
-E_2_hamster -E_4_hamster
-E_2_hamster -E_5_hamster
-E_3_hamster -E_4_hamster
-E_3_hamster -E_5_hamster
-E_4_hamster -E_5_hamster
-E_1_poisson -E_2_poisson
-E_1_poisson -E_3_poisson
-E_1_poisson -E_4_poisson
-E_1_poisson -E_5_poisson
-E_2_poisson -E_3_poisson
-E_2_poisson -E_4_poisson
-E_2_poisson -E_5_poisson
-E_3_poisson -E_4_poisson
-E_3_poisson -E_5_poisson
-E_4_poisson -E_5_poisson
-E_1_tortue -E_2_tortue
-E_1_tortue -E_3_tortue
-E_1_tortue -E_4_tortue
-E_1_tortue -E_5_tortue
-E_2_tortue -E_3_tortue
-E_2_tortue -E_4_tortue
-E_2_tortue -E_5_tortue
-E_3_tortue -E_4_tortue
-E_3_tortue -E_5_tortue
-E_4_tortue -E_5_tortue
-E_1_zebre -E_2_zebre
-E_1_zebre -E_3_zebre
-E_1_zebre -E_4_zebre
-E_1_zebre -E_5_zebre
-E_2_zebre -E_3_zebre
-E_2_zebre -E_4_zebre
-E_2_zebre -E_5_zebre
-E_3_zebre -E_4_zebre
-E_3_zebre -E_5_zebre
-E_4_zebre -E_5_zebre
-E_1_architecte -E_2_architecte
-E_1_architecte -E_3_architecte
-E_1_architecte -E_4_architecte
-E_1_architecte -E_5_architecte
-E_2_architecte -E_3_architecte
-E_2_architecte -E_4_architecte
-E_2_architecte -E_5_architecte
-E_3_architecte -E_4_architecte
-E_3_architecte -E_5_architecte
-E_4_architecte -E_5_architecte
-E_1_boulanger -E_2_boulanger
-E_1_boulanger -E_3_boulanger
-E_1_boulanger -E_4_boulanger
-E_1_boulanger -E_5_boulanger
-E_2_boulanger -E_3_boulanger
-E_2_boulanger -E_4_boulanger
-E_2_boulanger -E_5_boulanger
-E_3_boulanger -E_4_boulanger
-E_3_boulanger -E_5_boulanger
-E_4_boulanger -E_5_boulanger
-E_1_chercheur -E_2_chercheur
-E_1_chercheur -E_3_chercheur
-E_1_chercheur -E_4_chercheur
-E_1_chercheur -E_5_chercheur
-E_2_chercheur -E_3_chercheur
-E_2_chercheur -E_4_chercheur
-E_2_chercheur -E_5_chercheur
-E_3_chercheur -E_4_chercheur
-E_3_chercheur -E_5_chercheur
-E_4_chercheur -E_5_chercheur
-E_1_footballeur -E_2_footballeur
-E_1_footballeur -E_3_footballeur
-E_1_footballeur -E_4_footballeur
-E_1_footballeur -E_5_footballeur
-E_2_footballeur -E_3_footballeur
-E_2_footballeur -E_4_footballeur
-E_2_footballeur -E_5_footballeur
-E_3_footballeur -E_4_footballeur
-E_3_footballeur -E_5_footballeur
-E_4_footballeur -E_5_footballeur
-E_1_musicien -E_2_musicien
-E_1_musicien -E_3_musicien
-E_1_musicien -E_4_musicien
-E_1_musicien -E_5_musicien
-E_2_musicien -E_3_musicien
-E_2_musicien -E_4_musicien
-E_2_musicien -E_5_musicien
-E_3_musicien -E_4_musicien
-E_3_musicien -E_5_musicien
-E_4_musicien -E_5_musicien
-E_1_biere -E_2_biere
-E_1_biere -E_3_biere
-E_1_biere -E_4_biere
-E_1_biere -E_5_biere
-E_2_biere -E_3_biere
-E_2_biere -E_4_biere
-E_2_biere -E_5_biere
-E_3_biere -E_4_biere
-E_3_biere -E_5_biere
-E_4_biere -E_5_biere
-E_1_eau -E_2_eau
-E_1_eau -E_3_eau
-E_1_eau -E_4_eau
-E_1_eau -E_5_eau
-E_2_eau -E_3_eau
-E_2_eau -E_4_eau
-E_2_eau -E_5_eau
-E_3_eau -E_4_eau
-E_3_eau -E_5_eau
-E_4_eau -E_5_eau
-E_1_soda -E_2_soda
-E_1_soda -E_3_soda
-E_1_soda -E_4_soda
-E_1_soda -E_5_soda
-E_2_soda -E_3_soda
-E_2_soda -E_4_soda
-E_2_soda -E_5_soda
-E_3_soda -E_4_soda
-E_3_soda -E_5_soda
-E_4_soda -E_5_soda
-E_1_the -E_2_the
-E_1_the -E_3_the
-E_1_the -E_4_the
-E_1_the -E_5_the
-E_2_the -E_3_the
-E_2_the -E_4_the
-E_2_the -E_5_the
-E_3_the -E_4_the
-E_3_the -E_5_the
-E_4_the -E_5_the
-E_1_whisky -E_2_whisky
-E_1_whisky -E_3_whisky
-E_1_whisky -E_4_whisky
-E_1_whisky -E_5_whisky
-E_2_whisky -E_3_whisky
-E_2_whisky -E_4_whisky
-E_2_whisky -E_5_whisky
-E_3_whisky -E_4_whisky
-E_3_whisky -E_5_whisky
-E_4_whisky -E_5_whisky
-E_1_chanson -E_2_chanson
-E_1_chanson -E_3_chanson
-E_1_chanson -E_4_chanson
-E_1_chanson -E_5_chanson
-E_2_chanson -E_3_chanson
-E_2_chanson -E_4_chanson
-E_2_chanson -E_5_chanson
-E_3_chanson -E_4_chanson
-E_3_chanson -E_5_chanson
-E_4_chanson -E_5_chanson
-E_1_classique -E_2_classique
-E_1_classique -E_3_classique
-E_1_classique -E_4_classique
-E_1_classique -E_5_classique
-E_2_classique -E_3_classique
-E_2_classique -E_4_classique
-E_2_classique -E_5_classique
-E_3_classique -E_4_classique
-E_3_classique -E_5_classique
-E_4_classique -E_5_classique
-E_1_hardrock -E_2_hardrock
-E_1_hardrock -E_3_hardrock
-E_1_hardrock -E_4_hardrock
-E_1_hardrock -E_5_hardrock
-E_2_hardrock -E_3_hardrock
-E_2_hardrock -E_4_hardrock
-E_2_hardrock -E_5_hardrock
-E_3_hardrock -E_4_hardrock
-E_3_hardrock -E_5_hardrock
-E_4_hardrock -E_5_hardrock
-E_1_hiphop -E_2_hiphop
-E_1_hiphop -E_3_hiphop
-E_1_hiphop -E_4_hiphop
-E_1_hiphop -E_5_hiphop
-E_2_hiphop -E_3_hiphop
-E_2_hiphop -E_4_hiphop
-E_2_hiphop -E_5_hiphop
-E_3_hiphop -E_4_hiphop
-E_3_hiphop -E_5_hiphop
-E_4_hiphop -E_5_hiphop
-E_1_jazz -E_2_jazz
-E_1_jazz -E_3_jazz
-E_1_jazz -E_4_jazz
-E_1_jazz -E_5_jazz
-E_2_jazz -E_3_jazz
-E_2_jazz -E_4_jazz
-E_2_jazz -E_5_jazz
-E_3_jazz -E_4_jazz
-E_3_jazz -E_5_jazz
-E_4_jazz -E_5_jazz
-E_1_bois -E_1_blanche
-E_1_brique -E_1_blanche
-E_1_brique -E_1_bois
-E_1_immeuble -E_1_blanche
-E_1_immeuble -E_1_bois
-E_1_immeuble -E_1_brique
-E_1_jaune -E_1_blanche
-E_1_jaune -E_1_bois
-E_1_jaune -E_1_brique
-E_1_jaune -E_1_immeuble
-E_1_hamster -E_1_chat
-E_1_poisson -E_1_chat
-E_1_poisson -E_1_hamster
-E_1_tortue -E_1_chat
-E_1_tortue -E_1_hamster
-E_1_tortue -E_1_poisson
-E_1_zebre -E_1_chat
-E_1_zebre -E_1_hamster
-E_1_zebre -E_1_poisson
-E_1_zebre -E_1_tortue
-E_1_boulanger -E_1_architecte
-E_1_chercheur -E_1_architecte
-E_1_chercheur -E_1_boulanger
-E_1_footballeur -E_1_architecte
-E_1_footballeur -E_1_boulanger
-E_1_footballeur -E_1_chercheur
-E_1_musicien -E_1_architecte
-E_1_musicien -E_1_boulanger
-E_1_musicien -E_1_chercheur
-E_1_musicien -E_1_footballeur
-E_1_eau -E_1_biere
-E_1_soda -E_1_biere
-E_1_soda -E_1_eau
-E_1_the -E_1_biere
-E_1_the -E_1_eau
-E_1_the -E_1_soda
-E_1_whisky -E_1_biere
-E_1_whisky -E_1_eau
-E_1_whisky -E_1_soda
-E_1_whisky -E_1_the
-E_1_classique -E_1_chanson
-E_1_hardrock -E_1_chanson
-E_1_hardrock -E_1_classique
-E_1_hiphop -E_1_chanson
-E_1_hiphop -E_1_classique
-E_1_hiphop -E_1_hardrock
-E_1_jazz -E_1_chanson
-E_1_jazz -E_1_classique
-E_1_jazz -E_1_hardrock
-E_1_jazz -E_1_hiphop
-E_2_bois -E_2_blanche
-E_2_brique -E_2_blanche
-E_2_brique -E_2_bois
-E_2_immeuble -E_2_blanche
-E_2_immeuble -E_2_bois
-E_2_immeuble -E_2_brique
-E_2_jaune -E_2_blanche
-E_2_jaune -E_2_bois
-E_2_jaune -E_2_brique
-E_2_jaune -E_2_immeuble
-E_2_hamster -E_2_chat
-E_2_poisson -E_2_chat
-E_2_poisson -E_2_hamster
-E_2_tortue -E_2_chat
-E_2_tortue -E_2_hamster
-E_2_tortue -E_2_poisson
-E_2_zebre -E_2_chat
-E_2_zebre -E_2_hamster
-E_2_zebre -E_2_poisson
-E_2_zebre -E_2_tortue
-E_2_boulanger -E_2_architecte
-E_2_chercheur -E_2_architecte
-E_2_chercheur -E_2_boulanger
-E_2_footballeur -E_2_architecte
-E_2_footballeur -E_2_boulanger
-E_2_footballeur -E_2_chercheur
-E_2_musicien -E_2_architecte
-E_2_musicien -E_2_boulanger
-E_2_musicien -E_2_chercheur
-E_2_musicien -E_2_footballeur
-E_2_eau -E_2_biere
-E_2_soda -E_2_biere
-E_2_soda -E_2_eau
-E_2_the -E_2_biere
-E_2_the -E_2_eau
-E_2_the -E_2_soda
-E_2_whisky -E_2_biere
-E_2_whisky -E_2_eau
-E_2_whisky -E_2_soda
-E_2_whisky -E_2_the
-E_2_classique -E_2_chanson
-E_2_hardrock -E_2_chanson
-E_2_hardrock -E_2_classique
-E_2_hiphop -E_2_chanson
-E_2_hiphop -E_2_classique
-E_2_hiphop -E_2_hardrock
-E_2_jazz -E_2_chanson
-E_2_jazz -E_2_classique
-E_2_jazz -E_2_hardrock
-E_2_jazz -E_2_hiphop
-E_3_bois -E_3_blanche
-E_3_brique -E_3_blanche
-E_3_brique -E_3_bois
-E_3_immeuble -E_3_blanche
-E_3_immeuble -E_3_bois
-E_3_immeuble -E_3_brique
-E_3_jaune -E_3_blanche
-E_3_jaune -E_3_bois
-E_3_jaune -E_3_brique
-E_3_jaune -E_3_immeuble
-E_3_hamster -E_3_chat
-E_3_poisson -E_3_chat
-E_3_poisson -E_3_hamster
-E_3_tortue -E_3_chat
-E_3_tortue -E_3_hamster
-E_3_tortue -E_3_poisson
-E_3_zebre -E_3_chat
-E_3_zebre -E_3_hamster
-E_3_zebre -E_3_poisson
-E_3_zebre -E_3_tortue
-E_3_boulanger -E_3_architecte
-E_3_chercheur -E_3_architecte
-E_3_chercheur -E_3_boulanger
-E_3_footballeur -E_3_architecte
-E_3_footballeur -E_3_boulanger
-E_3_footballeur -E_3_chercheur
-E_3_musicien -E_3_architecte
-E_3_musicien -E_3_boulanger
-E_3_musicien -E_3_chercheur
-E_3_musicien -E_3_footballeur
-E_3_eau -E_3_biere
-E_3_soda -E_3_biere
-E_3_soda -E_3_eau
-E_3_the -E_3_biere
-E_3_the -E_3_eau
-E_3_the -E_3_soda
-E_3_whisky -E_3_biere
-E_3_whisky -E_3_eau
-E_3_whisky -E_3_soda
-E_3_whisky -E_3_the
-E_3_classique -E_3_chanson
-E_3_hardrock -E_3_chanson
-E_3_hardrock -E_3_classique
-E_3_hiphop -E_3_chanson
-E_3_hiphop -E_3_classique
-E_3_hiphop -E_3_hardrock
-E_3_jazz -E_3_chanson
-E_3_jazz -E_3_classique
-E_3_jazz -E_3_hardrock
-E_3_jazz -E_3_hiphop
-E_4_bois -E_4_blanche
-E_4_brique -E_4_blanche
-E_4_brique -E_4_bois
-E_4_immeuble -E_4_blanche
-E_4_immeuble -E_4_bois
-E_4_immeuble -E_4_brique
-E_4_jaune -E_4_blanche
-E_4_jaune -E_4_bois
-E_4_jaune -E_4_brique
-E_4_jaune -E_4_immeuble
-E_4_hamster -E_4_chat
-E_4_poisson -E_4_chat
-E_4_poisson -E_4_hamster
-E_4_tortue -E_4_chat
-E_4_tortue -E_4_hamster
-E_4_tortue -E_4_poisson
-E_4_zebre -E_4_chat
-E_4_zebre -E_4_hamster
-E_4_zebre -E_4_poisson
-E_4_zebre -E_4_tortue
-E_4_boulanger -E_4_architecte
-E_4_chercheur -E_4_architecte
-E_4_chercheur -E_4_boulanger
-E_4_footballeur -E_4_architecte
-E_4_footballeur -E_4_boulanger
-E_4_footballeur -E_4_chercheur
-E_4_musicien -E_4_architecte
-E_4_musicien -E_4_boulanger
-E_4_musicien -E_4_chercheur
-E_4_musicien -E_4_footballeur
-E_4_eau -E_4_biere
-E_4_soda -E_4_biere
-E_4_soda -E_4_eau
-E_4_the -E_4_biere
-E_4_the -E_4_eau
-E_4_the -E_4_soda
-E_4_whisky -E_4_biere
-E_4_whisky -E_4_eau
-E_4_whisky -E_4_soda
-E_4_whisky -E_4_the
-E_4_classique -E_4_chanson
-E_4_hardrock -E_4_chanson
-E_4_hardrock -E_4_classique
-E_4_hiphop -E_4_chanson
-E_4_hiphop -E_4_classique
-E_4_hiphop -E_4_hardrock
-E_4_jazz -E_4_chanson
-E_4_jazz -E_4_classique
-E_4_jazz -E_4_hardrock
-E_4_jazz -E_4_hiphop
-E_5_bois -E_5_blanche
-E_5_brique -E_5_blanche
-E_5_brique -E_5_bois
-E_5_immeuble -E_5_blanche
-E_5_immeuble -E_5_bois
-E_5_immeuble -E_5_brique
-E_5_jaune -E_5_blanche
-E_5_jaune -E_5_bois
-E_5_jaune -E_5_brique
-E_5_jaune -E_5_immeuble
-E_5_hamster -E_5_chat
-E_5_poisson -E_5_chat
-E_5_poisson -E_5_hamster
-E_5_tortue -E_5_chat
-E_5_tortue -E_5_hamster
-E_5_tortue -E_5_poisson
-E_5_zebre -E_5_chat
-E_5_zebre -E_5_hamster
-E_5_zebre -E_5_poisson
-E_5_zebre -E_5_tortue
-E_5_boulanger -E_5_architecte
-E_5_chercheur -E_5_architecte
-E_5_chercheur -E_5_boulanger
-E_5_footballeur -E_5_architecte
-E_5_footballeur -E_5_boulanger
-E_5_footballeur -E_5_chercheur
-E_5_musicien -E_5_architecte
-E_5_musicien -E_5_boulanger
-E_5_musicien -E_5_chercheur
-E_5_musicien -E_5_footballeur
-E_5_eau -E_5_biere
-E_5_soda -E_5_biere
-E_5_soda -E_5_eau
-E_5_the -E_5_biere
-E_5_the -E_5_eau
-E_5_the -E_5_soda
-E_5_whisky -E_5_biere
-E_5_whisky -E_5_eau
-E_5_whisky -E_5_soda
-E_5_whisky -E_5_the
-E_5_classique -E_5_chanson
-E_5_hardrock -E_5_chanson
-E_5_hardrock -E_5_classique
-E_5_hiphop -E_5_chanson
-E_5_hiphop -E_5_classique
-E_5_hiphop -E_5_hardrock
-E_5_jazz -E_5_chanson
-E_5_jazz -E_5_classique
-E_5_jazz -E_5_hardrock
-E_5_jazz -E_5_hiphop
